# Objective value = 2.4137199244262515e+03
I_0_0 621
I_0_1 7.0200011433573479e+02
I_0_2 7.7399994089836537e+02
I_0_3 1.0079999408983654e+03
I_1_0 38
I_1_1 37.9999861832165
I_1_2 1.9000013816783504e+01
I_1_3 1.3816783503983743e-05
I_2_0 94
I_2_1 9.3999965671161135e+01
I_2_2 4.7000034328838872e+01
I_2_3 3.4328838857237329e-05
I_3_0 144
I_3_1 1.4399994741114048e+02
I_3_2 72
I_3_3 0
I_4_0 81
I_4_1 -2.6452405215369033e-06
I_4_2 81
I_4_3 0
I_5_0 30
I_5_1 2.9999989043987593e+01
I_5_2 1.5000010956012401e+01
I_5_3 1.0956012401308612e-05
q_1_0_0 1.8999988604338363e+01
q_1_0_1 2.7633567002755221e-05
q_1_0_2 0
q_1_1_0 -2.4211218620021861e-06
q_1_1_1 0
q_1_1_2 0
q_2_0_0 4.6999968740946436e+01
q_2_0_1 6.86576777215801e-05
q_2_0_2 0
q_2_1_0 -3.0697852965983816e-06
q_2_1_1 0
q_2_1_2 0
q_3_0_0 7.1999942708490650e+01
q_3_0_1 5.2588859536865510e-05
q_3_0_2 0
q_3_1_0 4.7026498160656060e-06
q_3_1_1 0
q_3_1_2 0
q_4_0_0 0
q_4_0_1 1.6199986336868088e+02
q_4_0_2 0
q_4_1_0 -2.6452405215369033e-06
q_4_1_1 1.3927655965062513e-04
q_4_1_2 0
q_5_0_0 1.4999990023706307e+01
q_5_0_1 2.19120248070273e-05
q_5_0_2 0
q_5_1_0 -9.7971871168033445e-07
q_5_1_1 0
q_5_1_2 0
y_0_0_0 9.9999926959917307e-01
y_0_0_1 1.0000000215060199e+00
y_0_0_2 0
y_0_1_0 -2.9455595253134244e-08
y_0_1_1 8.0366498320839907e-07
y_0_1_2 0
y_1_0_0 9.9999940022833478e-01
y_1_0_1 7.2719913165367748e-07
y_1_0_2 0
y_1_1_0 -1.2742746642116769e-07
y_1_1_1 0
y_1_1_2 0
y_2_0_0 9.9999933491375392e-01
y_2_0_1 7.3040082690090981e-07
y_2_0_2 0
y_2_1_0 -6.5314580778688967e-08
y_2_1_1 0
y_2_1_2 0
y_3_0_0 9.9999920428459232e-01
y_3_0_1 7.9571540767959872e-07
y_3_0_2 0
y_3_1_0 6.5314580778688967e-08
y_3_1_1 0
y_3_1_2 0
y_4_0_0 0
y_4_0_1 9.9999922899230709e-01
y_4_0_2 0
y_4_1_0 -3.2657290389344483e-08
y_4_1_1 8.0366498320839907e-07
y_4_1_2 0
y_5_0_0 9.9999933491375381e-01
y_5_0_1 7.3040082690090981e-07
y_5_0_2 0
y_5_1_0 -6.5314580778688967e-08
y_5_1_1 0
y_5_1_2 0
x_0_1_0_0 9.9999946554291563e-01
x_0_1_0_1 1.4543982633073550e-06
x_0_1_0_2 0
x_0_1_1_0 -2.5485493284233539e-07
x_0_1_1_1 0
x_0_1_1_2 0
x_0_2_0_0 0
x_0_2_0_1 0
x_0_2_0_2 0
x_0_2_1_0 0
x_0_2_1_1 0
x_0_2_1_2 0
x_0_3_0_0 9.9999907365543050e-01
x_0_3_0_1 1.5914308153591974e-06
x_0_3_0_2 0
x_0_3_1_0 1.9594374233606690e-07
x_0_3_1_1 0
x_0_3_1_2 0
x_0_4_0_0 0
x_0_4_0_1 1.9999969971829610e+00
x_0_4_0_2 0
x_0_4_1_0 0
x_0_4_1_1 1.6073299664167981e-06
x_0_4_1_2 0
x_0_5_0_0 0
x_0_5_0_1 0
x_0_5_0_2 0
x_0_5_1_0 0
x_0_5_1_1 0
x_0_5_1_2 0
x_1_2_0_0 9.9999933491375392e-01
x_1_2_0_1 0
x_1_2_0_2 0
x_1_2_1_0 0
x_1_2_1_1 0
x_1_2_1_2 0
x_1_3_0_0 0
x_1_3_0_1 0
x_1_3_0_2 0
x_1_3_1_0 0
x_1_3_1_1 0
x_1_3_1_2 0
x_1_4_0_0 0
x_1_4_0_1 0
x_1_4_0_2 0
x_1_4_1_0 0
x_1_4_1_1 0
x_1_4_1_2 0
x_1_5_0_0 0
x_1_5_0_1 0
x_1_5_0_2 0
x_1_5_1_0 0
x_1_5_1_1 0
x_1_5_1_2 0
x_2_3_0_0 0
x_2_3_0_1 0
x_2_3_0_2 0
x_2_3_1_0 0
x_2_3_1_1 0
x_2_3_1_2 0
x_2_4_0_0 0
x_2_4_0_1 7.3040082690090981e-07
x_2_4_0_2 0
x_2_4_1_0 -6.5314580778688967e-08
x_2_4_1_1 0
x_2_4_1_2 0
x_2_5_0_0 9.9999933491375392e-01
x_2_5_0_1 7.3040082690090981e-07
x_2_5_0_2 0
x_2_5_1_0 -6.5314580778688967e-08
x_2_5_1_1 0
x_2_5_1_2 0
x_3_4_0_0 0
x_3_4_0_1 0
x_3_4_0_2 0
x_3_4_1_0 0
x_3_4_1_1 0
x_3_4_1_2 0
x_3_5_0_0 9.9999933491375370e-01
x_3_5_0_1 0
x_3_5_0_2 0
x_3_5_1_0 -6.5314580778688967e-08
x_3_5_1_1 0
x_3_5_1_2 0
x_4_5_0_0 0
x_4_5_0_1 7.3040082690090981e-07
x_4_5_0_2 0
x_4_5_1_0 0
x_4_5_1_1 0
x_4_5_1_2 0
